\ Using Xpress-MP extensions
Maximize
 89 decVar(1) + 99 decVar(2) + 119 decVar(3) + 112 decVar(4) + 143 decVar(5) + 
94 decVar(6) + 130 decVar(7) + 98 decVar(8) + 155 decVar(9) + 152 decVar(10) + 
55 decVar(11) + 68 decVar(12) + 99 decVar(13) + 140 decVar(14) + 87 decVar(15) + 
75 decVar(16) + 78 decVar(17) + 110 decVar(18) + 96 decVar(19) + 74 decVar(20) + 
65 decVar(21) + 5 decVar(22) + 40 decVar(23) + 30 decVar(24) + 30 decVar(25) + 
17 decVar(26) + 15 decVar(27) + 89 decVar(28) + 10 decVar(29) + 20 decVar(30)

Subject To
_R1: decVar(1) + decVar(2) + decVar(3) + decVar(4) + decVar(5) + decVar(6) + 
decVar(7) + decVar(8) + decVar(9) + decVar(10) + decVar(11) + decVar(12) + decVar(13) + 
decVar(14) + decVar(15) + decVar(16) + decVar(17) + decVar(18) + decVar(19) + 
decVar(20) + decVar(21) + decVar(22) + decVar(23) + decVar(24) + decVar(25) + 
decVar(26) + decVar(27) + decVar(28) + decVar(29) + decVar(30) = 150
AvgRating: 0.052 decVar(1) + 0.0553333 decVar(2) + 0.0533333 decVar(3) + 0.058 decVar(4) + 
0.0533333 decVar(5) + 0.054 decVar(6) + 0.0573333 decVar(7) + 0.0593333 decVar(8) + 
0.0593333 decVar(9) + 0.056 decVar(10) + 0.0633333 decVar(11) + 0.0506667 decVar(12) + 
0.0633333 decVar(13) + 0.0526667 decVar(14) + 0.0553333 decVar(15) + 0.0546667 decVar(16) + 
0.066 decVar(17) + 0.0586667 decVar(18) + 0.0533333 decVar(19) + 0.0593333 decVar(20) + 
0.054 decVar(21) + 0.0553333 decVar(22) + 0.0546667 decVar(23) + 0.0566667 decVar(24) + 
0.0593333 decVar(25) + 0.0633333 decVar(26) + 0.052 decVar(27) + 0.0606667 decVar(28) + 
0.054 decVar(29) + 0.0546667 decVar(30) >= 8.3

Bounds
decVar(1) <= 35
decVar(2) <= 30
decVar(3) <= 15
decVar(4) <= 15
decVar(5) <= 15
decVar(6) <= 20
decVar(7) <= 15
decVar(8) <= 10
decVar(9) <= 10
decVar(10) <= 20
decVar(11) <= 2
decVar(12) <= 5
decVar(13) <= 6
decVar(14) <= 7
decVar(15) <= 9
decVar(17) <= 2
decVar(18) <= 5
decVar(19) <= 4
decVar(20) <= 6
decVar(21) <= 2
decVar(22) <= 5
decVar(23) <= 4
decVar(24) <= 6
decVar(26) <= 2
decVar(27) <= 3
decVar(28) <= 17
decVar(29) <= 2
decVar(30) <= 5

Integers
decVar(1) decVar(2) decVar(3) decVar(4) decVar(5) decVar(6) decVar(7) decVar(8) 
decVar(9) decVar(10) decVar(11) decVar(12) decVar(13) decVar(14) decVar(15) 
decVar(16) decVar(17) decVar(18) decVar(19) decVar(20) decVar(21) decVar(22) 
decVar(23) decVar(24) decVar(25) decVar(26) decVar(27) decVar(28) decVar(29) 
decVar(30) 

End
